unknown
(model
; cardinality of BoundSet is 4
(declare-sort BoundSet 0)
; rep: @uc_BoundSet_0
; rep: @uc_BoundSet_1
; rep: @uc_BoundSet_2
; rep: @uc_BoundSet_3
; cardinality of UnboundSet is 1
(declare-sort UnboundSet 0)
(declare-fun groundTerm_5 () UnboundSet)
(define-fun BreaksThrough ((BOUND_VARIABLE_434 BoundSet) (BOUND_VARIABLE_435 BoundSet)) Bool true)
(define-fun Rides ((BOUND_VARIABLE_434 BoundSet) (BOUND_VARIABLE_435 BoundSet)) Bool true)
(define-fun IsInDaytime ((BOUND_VARIABLE_441 BoundSet)) Bool false)
)
sat
(model
; cardinality of BoundSet is 1
(declare-sort BoundSet 0)
; rep: @uc_BoundSet_0
; cardinality of UnboundSet is 1
(declare-sort UnboundSet 0)
(declare-fun groundTerm_7 () UnboundSet)
(define-fun BreaksThrough ((BOUND_VARIABLE_459 BoundSet) (BOUND_VARIABLE_460 BoundSet)) Bool true)
(define-fun Rides ((BOUND_VARIABLE_459 BoundSet) (BOUND_VARIABLE_460 BoundSet)) Bool true)
(define-fun IsInDaytime ((BOUND_VARIABLE_466 BoundSet)) Bool false)
)
